Traveling Salesman Problem/TSP_generados/Aleatorio1621103528_15.tsp
NAME: Aleatorio1621103528_15.tsp
COMMENT: Randomly generated scenario
TYPE: TSP
DIMENSION: 15
EDGE_WEIGHT_TYPE: ATT
NODE_COORD_SECTION
1 33.08 20.94
2 36.37 39.39
3 34.37 8.06
4 12.68 48.24
5 17.52 25.79
6 40.9 10.5
7 37.13 36.35
8 12.91 37.0
9 44.96 7.64
10 37.61 24.35
11 17.58 9.69
12 46.16 38.81
13 30.25 0.67
14 35.63 25.1
15 18.84 27.26
