Traveling Salesman Problem/TSP_generados/Aleatorio1621103528_15.opt.tour
NAME: Aleatorio1621103528_15.opt.tour
COMMENT: Optimal solution for Aleatorio1621103528_15 (154.92054766622329)
TYPE: TOUR
DIMENSION: 15
TOUR_SECTION
1 14 10 12 7 2 4 8 15 5 11 13 3 9 6
-1
EOF
